n=10;
hearts=38;
clubs=36;
spades=63;
diamonds=32;
blocked=17;
m=array2d(1..n, 1..n,[
	_,_,3,2,_,_,_,_,_,_,
	4,_,_,_,_,_,3,_,_,_,
	_,_,_,_,_,_,4,_,5,_,
	_,5,_,_,_,5,1,_,5,_,
	_,_,_,_,_,_,_,_,5,5,
	3,_,_,5,2,_,_,_,_,_,
	_,_,_,_,_,_,_,2,_,1,
	5,3,_,4,_,5,1,5,3,_,
	5,_,_,_,5,_,5,1,5,_,
	_,_,2,_,5,_,5,5,3,_
]);
